2 1
3 2
4 3
5 4
6 5
7 6
8 7
9 8
10 9
11 10
12 11
13 12
14 13
15 14
16 15
17 16
18 17
19 18
20 19
21 20
22 21
23 22
24 23
25 24
26 25
27 26
28 27
29 28
30 29
31 30
32 31
33 32
34 33
35 34
36 35
37 36
38 37
39 38
40 39
41 40
42 41
43 42
44 43
45 44
46 45
47 46
48 47
49 48
50 49
51 50
52 51
53 52
54 53
55 54
56 55
57 56
58 57
59 58
60 59
61 60
62 61
63 62
64 63
65 64
66 65
67 66
68 67
69 68
70 69
71 70
72 71
73 72
74 73
75 74
76 75
77 76
78 77
79 78
80 1
80 79
81 1
81 2
81 80
82 1
82 2
82 3
82 81
83 2
83 3
83 4
83 82
84 3
84 4
84 5
84 83
85 4
85 5
85 6
85 84
86 5
86 6
86 7
86 85
87 6
87 7
87 8
87 86
88 7
88 8
88 9
88 87
89 8
89 9
89 10
89 88
90 9
90 10
90 11
90 89
91 10
91 11
91 12
91 90
92 11
92 12
92 13
92 91
93 12
93 13
93 14
93 92
94 13
94 14
94 15
94 93
95 14
95 15
95 16
95 94
96 15
96 16
96 17
96 95
97 16
97 17
97 18
97 96
98 17
98 18
98 19
98 97
99 18
99 19
99 20
99 98
100 19
100 20
100 21
100 99
101 20
101 21
101 22
101 100
102 21
102 22
102 23
102 101
103 22
103 23
103 24
103 102
104 23
104 24
104 25
104 103
105 24
105 25
105 26
105 104
106 25
106 26
106 27
106 105
107 26
107 27
107 28
107 106
108 27
108 28
108 29
108 107
109 28
109 29
109 30
109 108
110 29
110 30
110 31
110 109
111 30
111 31
111 32
111 110
112 31
112 32
112 33
112 111
113 32
113 33
113 34
113 112
114 33
114 34
114 35
114 113
115 34
115 35
115 36
115 114
116 35
116 36
116 37
116 115
117 36
117 37
117 38
117 116
118 37
118 38
118 39
118 117
119 38
119 39
119 40
119 118
120 39
120 40
120 41
120 119
121 40
121 41
121 42
121 120
122 41
122 42
122 43
122 121
123 42
123 43
123 44
123 122
124 43
124 44
124 45
124 123
125 44
125 45
125 46
125 124
126 45
126 46
126 47
126 125
127 46
127 47
127 48
127 126
128 47
128 48
128 49
128 127
129 48
129 49
129 50
129 128
130 49
130 50
130 51
130 129
131 50
131 51
131 52
131 130
132 51
132 52
132 53
132 131
133 52
133 53
133 54
133 132
134 53
134 54
134 55
134 133
135 54
135 55
135 56
135 134
136 55
136 56
136 57
136 135
137 56
137 57
137 58
137 136
138 57
138 58
138 59
138 137
139 58
139 59
139 60
139 138
140 59
140 60
140 61
140 139
141 60
141 61
141 62
141 140
142 61
142 62
142 63
142 141
143 62
143 63
143 64
143 142
144 63
144 64
144 65
144 143
145 64
145 65
145 66
145 144
146 65
146 66
146 67
146 145
147 66
147 67
147 68
147 146
148 67
148 68
148 69
148 147
149 68
149 69
149 70
149 148
150 69
150 70
150 71
150 149
151 70
151 71
151 72
151 150
152 71
152 72
152 73
152 151
153 72
153 73
153 74
153 152
154 73
154 74
154 75
154 153
155 74
155 75
155 76
155 154
156 75
156 76
156 77
156 155
157 76
157 77
157 78
157 156
158 77
158 78
158 79
158 157
159 78
159 79
159 80
159 158
160 1
160 79
160 80
160 81
160 159
161 1
161 2
161 80
161 81
161 82
161 160
162 1
162 2
162 3
162 81
162 82
162 83
162 161
163 2
163 3
163 4
163 82
163 83
163 84
163 162
164 3
164 4
164 5
164 83
164 84
164 85
164 163
165 4
165 5
165 6
165 84
165 85
165 86
165 164
166 5
166 6
166 7
166 85
166 86
166 87
166 165
167 6
167 7
167 8
167 86
167 87
167 88
167 166
168 7
168 8
168 9
168 87
168 88
168 89
168 167
169 8
169 9
169 10
169 88
169 89
169 90
169 168
170 9
170 10
170 11
170 89
170 90
170 91
170 169
171 10
171 11
171 12
171 90
171 91
171 92
171 170
172 11
172 12
172 13
172 91
172 92
172 93
172 171
173 12
173 13
173 14
173 92
173 93
173 94
173 172
174 13
174 14
174 15
174 93
174 94
174 95
174 173
175 14
175 15
175 16
175 94
175 95
175 96
175 174
176 15
176 16
176 17
176 95
176 96
176 97
176 175
177 16
177 17
177 18
177 96
177 97
177 98
177 176
178 17
178 18
178 19
178 97
178 98
178 99
178 177
179 18
179 19
179 20
179 98
179 99
179 100
179 178
180 19
180 20
180 21
180 99
180 100
180 101
180 179
181 20
181 21
181 22
181 100
181 101
181 102
181 180
182 21
182 22
182 23
182 101
182 102
182 103
182 181
183 22
183 23
183 24
183 102
183 103
183 104
183 182
184 23
184 24
184 25
184 103
184 104
184 105
184 183
185 24
185 25
185 26
185 104
185 105
185 106
185 184
186 25
186 26
186 27
186 105
186 106
186 107
186 185
187 26
187 27
187 28
187 106
187 107
187 108
187 186
188 27
188 28
188 29
188 107
188 108
188 109
188 187
189 28
189 29
189 30
189 108
189 109
189 110
189 188
190 29
190 30
190 31
190 109
190 110
190 111
190 189
191 30
191 31
191 32
191 110
191 111
191 112
191 190
192 31
192 32
192 33
192 111
192 112
192 113
192 191
193 32
193 33
193 34
193 112
193 113
193 114
193 192
194 33
194 34
194 35
194 113
194 114
194 115
194 193
195 34
195 35
195 36
195 114
195 115
195 116
195 194
196 35
196 36
196 37
196 115
196 116
196 117
196 195
197 36
197 37
197 38
197 116
197 117
197 118
197 196
198 37
198 38
198 39
198 117
198 118
198 119
198 197
199 38
199 39
199 40
199 118
199 119
199 120
199 198
200 39
200 40
200 41
200 119
200 120
200 121
200 199
201 40
201 41
201 42
201 120
201 121
201 122
201 200
202 41
202 42
202 43
202 121
202 122
202 123
202 201
203 42
203 43
203 44
203 122
203 123
203 124
203 202
204 43
204 44
204 45
204 123
204 124
204 125
204 203
205 44
205 45
205 46
205 124
205 125
205 126
205 204
206 45
206 46
206 47
206 125
206 126
206 127
206 205
207 46
207 47
207 48
207 126
207 127
207 128
207 206
208 47
208 48
208 49
208 127
208 128
208 129
208 207
209 48
209 49
209 50
209 128
209 129
209 130
209 208
210 49
210 50
210 51
210 129
210 130
210 131
210 209
211 50
211 51
211 52
211 130
211 131
211 132
211 210
212 51
212 52
212 53
212 131
212 132
212 133
212 211
213 52
213 53
213 54
213 132
213 133
213 134
213 212
214 53
214 54
214 55
214 133
214 134
214 135
214 213
215 54
215 55
215 56
215 134
215 135
215 136
215 214
216 55
216 56
216 57
216 135
216 136
216 137
216 215
217 56
217 57
217 58
217 136
217 137
217 138
217 216
218 57
218 58
218 59
218 137
218 138
218 139
218 217
219 58
219 59
219 60
219 138
219 139
219 140
219 218
220 59
220 60
220 61
220 139
220 140
220 141
220 219
221 60
221 61
221 62
221 140
221 141
221 142
221 220
222 61
222 62
222 63
222 141
222 142
222 143
222 221
223 62
223 63
223 64
223 142
223 143
223 144
223 222
224 63
224 64
224 65
224 143
224 144
224 145
224 223
225 64
225 65
225 66
225 144
225 145
225 146
225 224
226 65
226 66
226 67
226 145
226 146
226 147
226 225
227 66
227 67
227 68
227 146
227 147
227 148
227 226
228 67
228 68
228 69
228 147
228 148
228 149
228 227
229 68
229 69
229 70
229 148
229 149
229 150
229 228
230 69
230 70
230 71
230 149
230 150
230 151
230 229
231 70
231 71
231 72
231 150
231 151
231 152
231 230
232 71
232 72
232 73
232 151
232 152
232 153
232 231
233 72
233 73
233 74
233 152
233 153
233 154
233 232
234 73
234 74
234 75
234 153
234 154
234 155
234 233
235 74
235 75
235 76
235 154
235 155
235 156
235 234
236 75
236 76
236 77
236 155
236 156
236 157
236 235
237 76
237 77
237 78
237 156
237 157
237 158
237 236
238 77
238 78
238 79
238 157
238 158
238 159
238 237
239 78
239 79
239 80
239 158
239 159
239 160
239 238
240 1
240 79
240 80
240 81
240 159
240 160
240 161
240 239
241 1
241 2
241 80
241 81
241 82
241 160
241 161
241 162
241 240
242 1
242 2
242 3
242 81
242 82
242 83
242 161
242 162
242 163
242 241
243 2
243 3
243 4
243 82
243 83
243 84
243 162
243 163
243 164
243 242
244 3
244 4
244 5
244 83
244 84
244 85
244 163
244 164
244 165
244 243
245 4
245 5
245 6
245 84
245 85
245 86
245 164
245 165
245 166
245 244
246 5
246 6
246 7
246 85
246 86
246 87
246 165
246 166
246 167
246 245
247 6
247 7
247 8
247 86
247 87
247 88
247 166
247 167
247 168
247 246
248 7
248 8
248 9
248 87
248 88
248 89
248 167
248 168
248 169
248 247
249 8
249 9
249 10
249 88
249 89
249 90
249 168
249 169
249 170
249 248
250 9
250 10
250 11
250 89
250 90
250 91
250 169
250 170
250 171
250 249
251 10
251 11
251 12
251 90
251 91
251 92
251 170
251 171
251 172
251 250
252 11
252 12
252 13
252 91
252 92
252 93
252 171
252 172
252 173
252 251
253 12
253 13
253 14
253 92
253 93
253 94
253 172
253 173
253 174
253 252
254 13
254 14
254 15
254 93
254 94
254 95
254 173
254 174
254 175
254 253
255 14
255 15
255 16
255 94
255 95
255 96
255 174
255 175
255 176
255 254
256 15
256 16
256 17
256 95
256 96
256 97
256 175
256 176
256 177
256 255
257 16
257 17
257 18
257 96
257 97
257 98
257 176
257 177
257 178
257 256
258 17
258 18
258 19
258 97
258 98
258 99
258 177
258 178
258 179
258 257
259 18
259 19
259 20
259 98
259 99
259 100
259 178
259 179
259 180
259 258
260 19
260 20
260 21
260 99
260 100
260 101
260 179
260 180
260 181
260 259
261 20
261 21
261 22
261 100
261 101
261 102
261 180
261 181
261 182
261 260
262 21
262 22
262 23
262 101
262 102
262 103
262 181
262 182
262 183
262 261
263 22
263 23
263 24
263 102
263 103
263 104
263 182
263 183
263 184
263 262
264 23
264 24
264 25
264 103
264 104
264 105
264 183
264 184
264 185
264 263
265 24
265 25
265 26
265 104
265 105
265 106
265 184
265 185
265 186
265 264
266 25
266 26
266 27
266 105
266 106
266 107
266 185
266 186
266 187
266 265
267 26
267 27
267 28
267 106
267 107
267 108
267 186
267 187
267 188
267 266
268 27
268 28
268 29
268 107
268 108
268 109
268 187
268 188
268 189
268 267
269 28
269 29
269 30
269 108
269 109
269 110
269 188
269 189
269 190
269 268
270 29
270 30
270 31
270 109
270 110
270 111
270 189
270 190
270 191
270 269
271 30
271 31
271 32
271 110
271 111
271 112
271 190
271 191
271 192
271 270
272 31
272 32
272 33
272 111
272 112
272 113
272 191
272 192
272 193
272 271
273 32
273 33
273 34
273 112
273 113
273 114
273 192
273 193
273 194
273 272
274 33
274 34
274 35
274 113
274 114
274 115
274 193
274 194
274 195
274 273
275 34
275 35
275 36
275 114
275 115
275 116
275 194
275 195
275 196
275 274
276 35
276 36
276 37
276 115
276 116
276 117
276 195
276 196
276 197
276 275
277 36
277 37
277 38
277 116
277 117
277 118
277 196
277 197
277 198
277 276
278 37
278 38
278 39
278 117
278 118
278 119
278 197
278 198
278 199
278 277
279 38
279 39
279 40
279 118
279 119
279 120
279 198
279 199
279 200
279 278
280 39
280 40
280 41
280 119
280 120
280 121
280 199
280 200
280 201
280 279
281 40
281 41
281 42
281 120
281 121
281 122
281 200
281 201
281 202
281 280
282 41
282 42
282 43
282 121
282 122
282 123
282 201
282 202
282 203
282 281
283 42
283 43
283 44
283 122
283 123
283 124
283 202
283 203
283 204
283 282
284 43
284 44
284 45
284 123
284 124
284 125
284 203
284 204
284 205
284 283
285 44
285 45
285 46
285 124
285 125
285 126
285 204
285 205
285 206
285 284
286 45
286 46
286 47
286 125
286 126
286 127
286 205
286 206
286 207
286 285
287 46
287 47
287 48
287 126
287 127
287 128
287 206
287 207
287 208
287 286
288 47
288 48
288 49
288 127
288 128
288 129
288 207
288 208
288 209
288 287
289 48
289 49
289 50
289 128
289 129
289 130
289 208
289 209
289 210
289 288
290 49
290 50
290 51
290 129
290 130
290 131
290 209
290 210
290 211
290 289
291 50
291 51
291 52
291 130
291 131
291 132
291 210
291 211
291 212
291 290
292 51
292 52
292 53
292 131
292 132
292 133
292 211
292 212
292 213
292 291
293 52
293 53
293 54
293 132
293 133
293 134
293 212
293 213
293 214
293 292
294 53
294 54
294 55
294 133
294 134
294 135
294 213
294 214
294 215
294 293
295 54
295 55
295 56
295 134
295 135
295 136
295 214
295 215
295 216
295 294
296 55
296 56
296 57
296 135
296 136
296 137
296 215
296 216
296 217
296 295
297 56
297 57
297 58
297 136
297 137
297 138
297 216
297 217
297 218
297 296
298 57
298 58
298 59
298 137
298 138
298 139
298 217
298 218
298 219
298 297
299 58
299 59
299 60
299 138
299 139
299 140
299 218
299 219
299 220
299 298
300 59
300 60
300 61
300 139
300 140
300 141
300 219
300 220
300 221
300 299
301 60
301 61
301 62
301 140
301 141
301 142
301 220
301 221
301 222
301 300
302 61
302 62
302 63
302 141
302 142
302 143
302 221
302 222
302 223
302 301
303 62
303 63
303 64
303 142
303 143
303 144
303 222
303 223
303 224
303 302
304 63
304 64
304 65
304 143
304 144
304 145
304 223
304 224
304 225
304 303
305 64
305 65
305 66
305 144
305 145
305 146
305 224
305 225
305 226
305 304
306 65
306 66
306 67
306 145
306 146
306 147
306 225
306 226
306 227
306 305
307 66
307 67
307 68
307 146
307 147
307 148
307 226
307 227
307 228
307 306
308 67
308 68
308 69
308 147
308 148
308 149
308 227
308 228
308 229
308 307
309 68
309 69
309 70
309 148
309 149
309 150
309 228
309 229
309 230
309 308
310 69
310 70
310 71
310 149
310 150
310 151
310 229
310 230
310 231
310 309
311 70
311 71
311 72
311 150
311 151
311 152
311 230
311 231
311 232
311 310
312 71
312 72
312 73
312 151
312 152
312 153
312 231
312 232
312 233
312 311
313 72
313 73
313 74
313 152
313 153
313 154
313 232
313 233
313 234
313 312
314 73
314 74
314 75
314 153
314 154
314 155
314 233
314 234
314 235
314 313
315 74
315 75
315 76
315 154
315 155
315 156
315 234
315 235
315 236
315 314
316 75
316 76
316 77
316 155
316 156
316 157
316 235
316 236
316 237
316 315
317 76
317 77
317 78
317 156
317 157
317 158
317 236
317 237
317 238
317 316
318 77
318 78
318 79
318 157
318 158
318 159
318 237
318 238
318 239
318 317
319 78
319 79
319 80
319 158
319 159
319 160
319 238
319 239
319 240
319 318
320 1
320 79
320 80
320 81
320 159
320 160
320 161
320 239
320 240
320 241
320 319
321 1
321 2
321 80
321 81
321 82
321 160
321 161
321 162
321 240
321 241
321 242
321 320
322 1
322 2
322 3
322 81
322 82
322 83
322 161
322 162
322 163
322 241
322 242
322 243
322 321
323 2
323 3
323 4
323 82
323 83
323 84
323 162
323 163
323 164
323 242
323 243
323 244
323 322
324 3
324 4
324 5
324 83
324 84
324 85
324 163
324 164
324 165
324 243
324 244
324 245
324 323
325 4
325 5
325 6
325 84
325 85
325 86
325 164
325 165
325 166
325 244
325 245
325 246
325 324
326 5
326 6
326 7
326 85
326 86
326 87
326 165
326 166
326 167
326 245
326 246
326 247
326 325
327 6
327 7
327 8
327 86
327 87
327 88
327 166
327 167
327 168
327 246
327 247
327 248
327 326
328 7
328 8
328 9
328 87
328 88
328 89
328 167
328 168
328 169
328 247
328 248
328 249
328 327
329 8
329 9
329 10
329 88
329 89
329 90
329 168
329 169
329 170
329 248
329 249
329 250
329 328
330 9
330 10
330 11
330 89
330 90
330 91
330 169
330 170
330 171
330 249
330 250
330 251
330 329
331 10
331 11
331 12
331 90
331 91
331 92
331 170
331 171
331 172
331 250
331 251
331 252
331 330
332 11
332 12
332 13
332 91
332 92
332 93
332 171
332 172
332 173
332 251
332 252
332 253
332 331
333 12
333 13
333 14
333 92
333 93
333 94
333 172
333 173
333 174
333 252
333 253
333 254
333 332
334 13
334 14
334 15
334 93
334 94
334 95
334 173
334 174
334 175
334 253
334 254
334 255
334 333
335 14
335 15
335 16
335 94
335 95
335 96
335 174
335 175
335 176
335 254
335 255
335 256
335 334
336 15
336 16
336 17
336 95
336 96
336 97
336 175
336 176
336 177
336 255
336 256
336 257
336 335
337 16
337 17
337 18
337 96
337 97
337 98
337 176
337 177
337 178
337 256
337 257
337 258
337 336
338 17
338 18
338 19
338 97
338 98
338 99
338 177
338 178
338 179
338 257
338 258
338 259
338 337
339 18
339 19
339 20
339 98
339 99
339 100
339 178
339 179
339 180
339 258
339 259
339 260
339 338
340 19
340 20
340 21
340 99
340 100
340 101
340 179
340 180
340 181
340 259
340 260
340 261
340 339
341 20
341 21
341 22
341 100
341 101
341 102
341 180
341 181
341 182
341 260
341 261
341 262
341 340
342 21
342 22
342 23
342 101
342 102
342 103
342 181
342 182
342 183
342 261
342 262
342 263
342 341
343 22
343 23
343 24
343 102
343 103
343 104
343 182
343 183
343 184
343 262
343 263
343 264
343 342
344 23
344 24
344 25
344 103
344 104
344 105
344 183
344 184
344 185
344 263
344 264
344 265
344 343
345 24
345 25
345 26
345 104
345 105
345 106
345 184
345 185
345 186
345 264
345 265
345 266
345 344
346 25
346 26
346 27
346 105
346 106
346 107
346 185
346 186
346 187
346 265
346 266
346 267
346 345
347 26
347 27
347 28
347 106
347 107
347 108
347 186
347 187
347 188
347 266
347 267
347 268
347 346
348 27
348 28
348 29
348 107
348 108
348 109
348 187
348 188
348 189
348 267
348 268
348 269
348 347
349 28
349 29
349 30
349 108
349 109
349 110
349 188
349 189
349 190
349 268
349 269
349 270
349 348
350 29
350 30
350 31
350 109
350 110
350 111
350 189
350 190
350 191
350 269
350 270
350 271
350 349
351 30
351 31
351 32
351 110
351 111
351 112
351 190
351 191
351 192
351 270
351 271
351 272
351 350
352 31
352 32
352 33
352 111
352 112
352 113
352 191
352 192
352 193
352 271
352 272
352 273
352 351
353 32
353 33
353 34
353 112
353 113
353 114
353 192
353 193
353 194
353 272
353 273
353 274
353 352
354 33
354 34
354 35
354 113
354 114
354 115
354 193
354 194
354 195
354 273
354 274
354 275
354 353
355 34
355 35
355 36
355 114
355 115
355 116
355 194
355 195
355 196
355 274
355 275
355 276
355 354
356 35
356 36
356 37
356 115
356 116
356 117
356 195
356 196
356 197
356 275
356 276
356 277
356 355
357 36
357 37
357 38
357 116
357 117
357 118
357 196
357 197
357 198
357 276
357 277
357 278
357 356
358 37
358 38
358 39
358 117
358 118
358 119
358 197
358 198
358 199
358 277
358 278
358 279
358 357
359 38
359 39
359 40
359 118
359 119
359 120
359 198
359 199
359 200
359 278
359 279
359 280
359 358
360 39
360 40
360 41
360 119
360 120
360 121
360 199
360 200
360 201
360 279
360 280
360 281
360 359
361 40
361 41
361 42
361 120
361 121
361 122
361 200
361 201
361 202
361 280
361 281
361 282
361 360
362 41
362 42
362 43
362 121
362 122
362 123
362 201
362 202
362 203
362 281
362 282
362 283
362 361
363 42
363 43
363 44
363 122
363 123
363 124
363 202
363 203
363 204
363 282
363 283
363 284
363 362
364 43
364 44
364 45
364 123
364 124
364 125
364 203
364 204
364 205
364 283
364 284
364 285
364 363
365 44
365 45
365 46
365 124
365 125
365 126
365 204
365 205
365 206
365 284
365 285
365 286
365 364
366 45
366 46
366 47
366 125
366 126
366 127
366 205
366 206
366 207
366 285
366 286
366 287
366 365
367 46
367 47
367 48
367 126
367 127
367 128
367 206
367 207
367 208
367 286
367 287
367 288
367 366
368 47
368 48
368 49
368 127
368 128
368 129
368 207
368 208
368 209
368 287
368 288
368 289
368 367
369 48
369 49
369 50
369 128
369 129
369 130
369 208
369 209
369 210
369 288
369 289
369 290
369 368
370 49
370 50
370 51
370 129
370 130
370 131
370 209
370 210
370 211
370 289
370 290
370 291
370 369
371 50
371 51
371 52
371 130
371 131
371 132
371 210
371 211
371 212
371 290
371 291
371 292
371 370
372 51
372 52
372 53
372 131
372 132
372 133
372 211
372 212
372 213
372 291
372 292
372 293
372 371
373 52
373 53
373 54
373 132
373 133
373 134
373 212
373 213
373 214
373 292
373 293
373 294
373 372
374 53
374 54
374 55
374 133
374 134
374 135
374 213
374 214
374 215
374 293
374 294
374 295
374 373
375 54
375 55
375 56
375 134
375 135
375 136
375 214
375 215
375 216
375 294
375 295
375 296
375 374
376 55
376 56
376 57
376 135
376 136
376 137
376 215
376 216
376 217
376 295
376 296
376 297
376 375
377 56
377 57
377 58
377 136
377 137
377 138
377 216
377 217
377 218
377 296
377 297
377 298
377 376
378 57
378 58
378 59
378 137
378 138
378 139
378 217
378 218
378 219
378 297
378 298
378 299
378 377
379 58
379 59
379 60
379 138
379 139
379 140
379 218
379 219
379 220
379 298
379 299
379 300
379 378
380 59
380 60
380 61
380 139
380 140
380 141
380 219
380 220
380 221
380 299
380 300
380 301
380 379
381 60
381 61
381 62
381 140
381 141
381 142
381 220
381 221
381 222
381 300
381 301
381 302
381 380
382 61
382 62
382 63
382 141
382 142
382 143
382 221
382 222
382 223
382 301
382 302
382 303
382 381
383 62
383 63
383 64
383 142
383 143
383 144
383 222
383 223
383 224
383 302
383 303
383 304
383 382
384 63
384 64
384 65
384 143
384 144
384 145
384 223
384 224
384 225
384 303
384 304
384 305
384 383
385 64
385 65
385 66
385 144
385 145
385 146
385 224
385 225
385 226
385 304
385 305
385 306
385 384
386 65
386 66
386 67
386 145
386 146
386 147
386 225
386 226
386 227
386 305
386 306
386 307
386 385
387 66
387 67
387 68
387 146
387 147
387 148
387 226
387 227
387 228
387 306
387 307
387 308
387 386
388 67
388 68
388 69
388 147
388 148
388 149
388 227
388 228
388 229
388 307
388 308
388 309
388 387
389 68
389 69
389 70
389 148
389 149
389 150
389 228
389 229
389 230
389 308
389 309
389 310
389 388
390 69
390 70
390 71
390 149
390 150
390 151
390 229
390 230
390 231
390 309
390 310
390 311
390 389
391 70
391 71
391 72
391 150
391 151
391 152
391 230
391 231
391 232
391 310
391 311
391 312
391 390
392 71
392 72
392 73
392 151
392 152
392 153
392 231
392 232
392 233
392 311
392 312
392 313
392 391
393 72
393 73
393 74
393 152
393 153
393 154
393 232
393 233
393 234
393 312
393 313
393 314
393 392
394 73
394 74
394 75
394 153
394 154
394 155
394 233
394 234
394 235
394 313
394 314
394 315
394 393
395 74
395 75
395 76
395 154
395 155
395 156
395 234
395 235
395 236
395 314
395 315
395 316
395 394
396 75
396 76
396 77
396 155
396 156
396 157
396 235
396 236
396 237
396 315
396 316
396 317
396 395
397 76
397 77
397 78
397 156
397 157
397 158
397 236
397 237
397 238
397 316
397 317
397 318
397 396
398 77
398 78
398 79
398 157
398 158
398 159
398 237
398 238
398 239
398 317
398 318
398 319
398 397
399 78
399 79
399 80
399 158
399 159
399 160
399 238
399 239
399 240
399 318
399 319
399 320
399 398
400 1
400 79
400 80
400 81
400 159
400 160
400 161
400 239
400 240
400 241
400 319
400 320
400 321
400 399
401 1
401 2
401 80
401 81
401 82
401 160
401 161
401 162
401 240
401 241
401 242
401 320
401 321
401 322
401 400
402 1
402 2
402 3
402 81
402 82
402 83
402 161
402 162
402 163
402 241
402 242
402 243
402 321
402 322
402 323
402 401
403 2
403 3
403 4
403 82
403 83
403 84
403 162
403 163
403 164
403 242
403 243
403 244
403 322
403 323
403 324
403 402
404 3
404 4
404 5
404 83
404 84
404 85
404 163
404 164
404 165
404 243
404 244
404 245
404 323
404 324
404 325
404 403
405 4
405 5
405 6
405 84
405 85
405 86
405 164
405 165
405 166
405 244
405 245
405 246
405 324
405 325
405 326
405 404
406 5
406 6
406 7
406 85
406 86
406 87
406 165
406 166
406 167
406 245
406 246
406 247
406 325
406 326
406 327
406 405
407 6
407 7
407 8
407 86
407 87
407 88
407 166
407 167
407 168
407 246
407 247
407 248
407 326
407 327
407 328
407 406
408 7
408 8
408 9
408 87
408 88
408 89
408 167
408 168
408 169
408 247
408 248
408 249
408 327
408 328
408 329
408 407
409 8
409 9
409 10
409 88
409 89
409 90
409 168
409 169
409 170
409 248
409 249
409 250
409 328
409 329
409 330
409 408
410 9
410 10
410 11
410 89
410 90
410 91
410 169
410 170
410 171
410 249
410 250
410 251
410 329
410 330
410 331
410 409
411 10
411 11
411 12
411 90
411 91
411 92
411 170
411 171
411 172
411 250
411 251
411 252
411 330
411 331
411 332
411 410
412 11
412 12
412 13
412 91
412 92
412 93
412 171
412 172
412 173
412 251
412 252
412 253
412 331
412 332
412 333
412 411
413 12
413 13
413 14
413 92
413 93
413 94
413 172
413 173
413 174
413 252
413 253
413 254
413 332
413 333
413 334
413 412
414 13
414 14
414 15
414 93
414 94
414 95
414 173
414 174
414 175
414 253
414 254
414 255
414 333
414 334
414 335
414 413
415 14
415 15
415 16
415 94
415 95
415 96
415 174
415 175
415 176
415 254
415 255
415 256
415 334
415 335
415 336
415 414
416 15
416 16
416 17
416 95
416 96
416 97
416 175
416 176
416 177
416 255
416 256
416 257
416 335
416 336
416 337
416 415
417 16
417 17
417 18
417 96
417 97
417 98
417 176
417 177
417 178
417 256
417 257
417 258
417 336
417 337
417 338
417 416
418 17
418 18
418 19
418 97
418 98
418 99
418 177
418 178
418 179
418 257
418 258
418 259
418 337
418 338
418 339
418 417
419 18
419 19
419 20
419 98
419 99
419 100
419 178
419 179
419 180
419 258
419 259
419 260
419 338
419 339
419 340
419 418
420 19
420 20
420 21
420 99
420 100
420 101
420 179
420 180
420 181
420 259
420 260
420 261
420 339
420 340
420 341
420 419
421 20
421 21
421 22
421 100
421 101
421 102
421 180
421 181
421 182
421 260
421 261
421 262
421 340
421 341
421 342
421 420
422 21
422 22
422 23
422 101
422 102
422 103
422 181
422 182
422 183
422 261
422 262
422 263
422 341
422 342
422 343
422 421
423 22
423 23
423 24
423 102
423 103
423 104
423 182
423 183
423 184
423 262
423 263
423 264
423 342
423 343
423 344
423 422
424 23
424 24
424 25
424 103
424 104
424 105
424 183
424 184
424 185
424 263
424 264
424 265
424 343
424 344
424 345
424 423
425 24
425 25
425 26
425 104
425 105
425 106
425 184
425 185
425 186
425 264
425 265
425 266
425 344
425 345
425 346
425 424
426 25
426 26
426 27
426 105
426 106
426 107
426 185
426 186
426 187
426 265
426 266
426 267
426 345
426 346
426 347
426 425
427 26
427 27
427 28
427 106
427 107
427 108
427 186
427 187
427 188
427 266
427 267
427 268
427 346
427 347
427 348
427 426
428 27
428 28
428 29
428 107
428 108
428 109
428 187
428 188
428 189
428 267
428 268
428 269
428 347
428 348
428 349
428 427
429 28
429 29
429 30
429 108
429 109
429 110
429 188
429 189
429 190
429 268
429 269
429 270
429 348
429 349
429 350
429 428
430 29
430 30
430 31
430 109
430 110
430 111
430 189
430 190
430 191
430 269
430 270
430 271
430 349
430 350
430 351
430 429
431 30
431 31
431 32
431 110
431 111
431 112
431 190
431 191
431 192
431 270
431 271
431 272
431 350
431 351
431 352
431 430
432 31
432 32
432 33
432 111
432 112
432 113
432 191
432 192
432 193
432 271
432 272
432 273
432 351
432 352
432 353
432 431
433 32
433 33
433 34
433 112
433 113
433 114
433 192
433 193
433 194
433 272
433 273
433 274
433 352
433 353
433 354
433 432
434 33
434 34
434 35
434 113
434 114
434 115
434 193
434 194
434 195
434 273
434 274
434 275
434 353
434 354
434 355
434 433
435 34
435 35
435 36
435 114
435 115
435 116
435 194
435 195
435 196
435 274
435 275
435 276
435 354
435 355
435 356
435 434
436 35
436 36
436 37
436 115
436 116
436 117
436 195
436 196
436 197
436 275
436 276
436 277
436 355
436 356
436 357
436 435
437 36
437 37
437 38
437 116
437 117
437 118
437 196
437 197
437 198
437 276
437 277
437 278
437 356
437 357
437 358
437 436
438 37
438 38
438 39
438 117
438 118
438 119
438 197
438 198
438 199
438 277
438 278
438 279
438 357
438 358
438 359
438 437
439 38
439 39
439 40
439 118
439 119
439 120
439 198
439 199
439 200
439 278
439 279
439 280
439 358
439 359
439 360
439 438
440 39
440 40
440 41
440 119
440 120
440 121
440 199
440 200
440 201
440 279
440 280
440 281
440 359
440 360
440 361
440 439
441 40
441 41
441 42
441 120
441 121
441 122
441 200
441 201
441 202
441 280
441 281
441 282
441 360
441 361
441 362
441 440
442 41
442 42
442 43
442 121
442 122
442 123
442 201
442 202
442 203
442 281
442 282
442 283
442 361
442 362
442 363
442 441
443 42
443 43
443 44
443 122
443 123
443 124
443 202
443 203
443 204
443 282
443 283
443 284
443 362
443 363
443 364
443 442
444 43
444 44
444 45
444 123
444 124
444 125
444 203
444 204
444 205
444 283
444 284
444 285
444 363
444 364
444 365
444 443
445 44
445 45
445 46
445 124
445 125
445 126
445 204
445 205
445 206
445 284
445 285
445 286
445 364
445 365
445 366
445 444
446 45
446 46
446 47
446 125
446 126
446 127
446 205
446 206
446 207
446 285
446 286
446 287
446 365
446 366
446 367
446 445
447 46
447 47
447 48
447 126
447 127
447 128
447 206
447 207
447 208
447 286
447 287
447 288
447 366
447 367
447 368
447 446
448 47
448 48
448 49
448 127
448 128
448 129
448 207
448 208
448 209
448 287
448 288
448 289
448 367
448 368
448 369
448 447
449 48
449 49
449 50
449 128
449 129
449 130
449 208
449 209
449 210
449 288
449 289
449 290
449 368
449 369
449 370
449 448
450 49
450 50
450 51
450 129
450 130
450 131
450 209
450 210
450 211
450 289
450 290
450 291
450 369
450 370
450 371
450 449
451 50
451 51
451 52
451 130
451 131
451 132
451 210
451 211
451 212
451 290
451 291
451 292
451 370
451 371
451 372
451 450
452 51
452 52
452 53
452 131
452 132
452 133
452 211
452 212
452 213
452 291
452 292
452 293
452 371
452 372
452 373
452 451
453 52
453 53
453 54
453 132
453 133
453 134
453 212
453 213
453 214
453 292
453 293
453 294
453 372
453 373
453 374
453 452
454 53
454 54
454 55
454 133
454 134
454 135
454 213
454 214
454 215
454 293
454 294
454 295
454 373
454 374
454 375
454 453
455 54
455 55
455 56
455 134
455 135
455 136
455 214
455 215
455 216
455 294
455 295
455 296
455 374
455 375
455 376
455 454
456 55
456 56
456 57
456 135
456 136
456 137
456 215
456 216
456 217
456 295
456 296
456 297
456 375
456 376
456 377
456 455
457 56
457 57
457 58
457 136
457 137
457 138
457 216
457 217
457 218
457 296
457 297
457 298
457 376
457 377
457 378
457 456
458 57
458 58
458 59
458 137
458 138
458 139
458 217
458 218
458 219
458 297
458 298
458 299
458 377
458 378
458 379
458 457
459 58
459 59
459 60
459 138
459 139
459 140
459 218
459 219
459 220
459 298
459 299
459 300
459 378
459 379
459 380
459 458
460 59
460 60
460 61
460 139
460 140
460 141
460 219
460 220
460 221
460 299
460 300
460 301
460 379
460 380
460 381
460 459
461 60
461 61
461 62
461 140
461 141
461 142
461 220
461 221
461 222
461 300
461 301
461 302
461 380
461 381
461 382
461 460
462 61
462 62
462 63
462 141
462 142
462 143
462 221
462 222
462 223
462 301
462 302
462 303
462 381
462 382
462 383
462 461
463 62
463 63
463 64
463 142
463 143
463 144
463 222
463 223
463 224
463 302
463 303
463 304
463 382
463 383
463 384
463 462
464 63
464 64
464 65
464 143
464 144
464 145
464 223
464 224
464 225
464 303
464 304
464 305
464 383
464 384
464 385
464 463
465 64
465 65
465 66
465 144
465 145
465 146
465 224
465 225
465 226
465 304
465 305
465 306
465 384
465 385
465 386
465 464
466 65
466 66
466 67
466 145
466 146
466 147
466 225
466 226
466 227
466 305
466 306
466 307
466 385
466 386
466 387
466 465
467 66
467 67
467 68
467 146
467 147
467 148
467 226
467 227
467 228
467 306
467 307
467 308
467 386
467 387
467 388
467 466
468 67
468 68
468 69
468 147
468 148
468 149
468 227
468 228
468 229
468 307
468 308
468 309
468 387
468 388
468 389
468 467
469 68
469 69
469 70
469 148
469 149
469 150
469 228
469 229
469 230
469 308
469 309
469 310
469 388
469 389
469 390
469 468
470 69
470 70
470 71
470 149
470 150
470 151
470 229
470 230
470 231
470 309
470 310
470 311
470 389
470 390
470 391
470 469
471 70
471 71
471 72
471 150
471 151
471 152
471 230
471 231
471 232
471 310
471 311
471 312
471 390
471 391
471 392
471 470
472 71
472 72
472 73
472 151
472 152
472 153
472 231
472 232
472 233
472 311
472 312
472 313
472 391
472 392
472 393
472 471
473 72
473 73
473 74
473 152
473 153
473 154
473 232
473 233
473 234
473 312
473 313
473 314
473 392
473 393
473 394
473 472
474 73
474 74
474 75
474 153
474 154
474 155
474 233
474 234
474 235
474 313
474 314
474 315
474 393
474 394
474 395
474 473
475 74
475 75
475 76
475 154
475 155
475 156
475 234
475 235
475 236
475 314
475 315
475 316
475 394
475 395
475 396
475 474
476 75
476 76
476 77
476 155
476 156
476 157
476 235
476 236
476 237
476 315
476 316
476 317
476 395
476 396
476 397
476 475
477 76
477 77
477 78
477 156
477 157
477 158
477 236
477 237
477 238
477 316
477 317
477 318
477 396
477 397
477 398
477 476
478 77
478 78
478 79
478 157
478 158
478 159
478 237
478 238
478 239
478 317
478 318
478 319
478 397
478 398
478 399
478 477
479 78
479 79
479 80
479 158
479 159
479 160
479 238
479 239
479 240
479 318
479 319
479 320
479 398
479 399
479 400
479 478
480 1
480 79
480 80
480 81
480 159
480 160
480 161
480 239
480 240
480 241
480 319
480 320
480 321
480 399
480 400
480 401
480 479
481 1
481 2
481 80
481 81
481 82
481 160
481 161
481 162
481 240
481 241
481 242
481 320
481 321
481 322
481 400
481 401
481 402
481 480
482 1
482 2
482 3
482 81
482 82
482 83
482 161
482 162
482 163
482 241
482 242
482 243
482 321
482 322
482 323
482 401
482 402
482 403
482 481
483 2
483 3
483 4
483 82
483 83
483 84
483 162
483 163
483 164
483 242
483 243
483 244
483 322
483 323
483 324
483 402
483 403
483 404
483 482
484 3
484 4
484 5
484 83
484 84
484 85
484 163
484 164
484 165
484 243
484 244
484 245
484 323
484 324
484 325
484 403
484 404
484 405
484 483
485 4
485 5
485 6
485 84
485 85
485 86
485 164
485 165
485 166
485 244
485 245
485 246
485 324
485 325
485 326
485 404
485 405
485 406
485 484
486 5
486 6
486 7
486 85
486 86
486 87
486 165
486 166
486 167
486 245
486 246
486 247
486 325
486 326
486 327
486 405
486 406
486 407
486 485
487 6
487 7
487 8
487 86
487 87
487 88
487 166
487 167
487 168
487 246
487 247
487 248
487 326
487 327
487 328
487 406
487 407
487 408
487 486
488 7
488 8
488 9
488 87
488 88
488 89
488 167
488 168
488 169
488 247
488 248
488 249
488 327
488 328
488 329
488 407
488 408
488 409
488 487
489 8
489 9
489 10
489 88
489 89
489 90
489 168
489 169
489 170
489 248
489 249
489 250
489 328
489 329
489 330
489 408
489 409
489 410
489 488
490 9
490 10
490 11
490 89
490 90
490 91
490 169
490 170
490 171
490 249
490 250
490 251
490 329
490 330
490 331
490 409
490 410
490 411
490 489
491 10
491 11
491 12
491 90
491 91
491 92
491 170
491 171
491 172
491 250
491 251
491 252
491 330
491 331
491 332
491 410
491 411
491 412
491 490
492 11
492 12
492 13
492 91
492 92
492 93
492 171
492 172
492 173
492 251
492 252
492 253
492 331
492 332
492 333
492 411
492 412
492 413
492 491
493 12
493 13
493 14
493 92
493 93
493 94
493 172
493 173
493 174
493 252
493 253
493 254
493 332
493 333
493 334
493 412
493 413
493 414
493 492
494 13
494 14
494 15
494 93
494 94
494 95
494 173
494 174
494 175
494 253
494 254
494 255
494 333
494 334
494 335
494 413
494 414
494 415
494 493
495 14
495 15
495 16
495 94
495 95
495 96
495 174
495 175
495 176
495 254
495 255
495 256
495 334
495 335
495 336
495 414
495 415
495 416
495 494
496 15
496 16
496 17
496 95
496 96
496 97
496 175
496 176
496 177
496 255
496 256
496 257
496 335
496 336
496 337
496 415
496 416
496 417
496 495
497 16
497 17
497 18
497 96
497 97
497 98
497 176
497 177
497 178
497 256
497 257
497 258
497 336
497 337
497 338
497 416
497 417
497 418
497 496
498 17
498 18
498 19
498 97
498 98
498 99
498 177
498 178
498 179
498 257
498 258
498 259
498 337
498 338
498 339
498 417
498 418
498 419
498 497
499 18
499 19
499 20
499 98
499 99
499 100
499 178
499 179
499 180
499 258
499 259
499 260
499 338
499 339
499 340
499 418
499 419
499 420
499 498
500 19
500 20
500 21
500 99
500 100
500 101
500 179
500 180
500 181
500 259
500 260
500 261
500 339
500 340
500 341
500 419
500 420
500 421
500 499
